c ---- [ banner ] ------------------------------------------------------------
c
c Kissat SAT Solver
c 
c Copyright (c) 2021-2023 Armin Biere University of Freiburg
c Copyright (c) 2019-2021 Armin Biere Johannes Kepler University Linz
c 
c Version 3.1.1 unknown
c gcc (Ubuntu 9.4.0-1ubuntu1~20.04.2) 9.4.0 -W -Wall -O3 -DNDEBUG
c Mon Feb 26 18:18:52 CET 2024 Linux OptiPlex-7080 5.15.0-88-generic x86_64
c
c ---- [ parsing ] -----------------------------------------------------------
c
c opened and reading DIMACS file:
c
c   /home/oliveras/SAT-comp-2023//e5a72ac8f4880702a4deacc7854318e8-hash_table_find_safety_size_19.cnf
c
c parsed 'p cnf 10735052 49277846' header
c closing input after reading 1209433356 bytes (1 GB)
c finished parsing after 11.39 seconds
c
c ---- [ options ] -----------------------------------------------------------
c
c --seed=1                         (different from default '0')
c
c ---- [ solving ] -----------------------------------------------------------
c
c  seconds   switched conflicts       irredundant    variables
c           MB reductions redundant            trail       remaining
c            level restarts      binary           glue
c
c * 11.39 3111 0 0 0  0   0   0 6656916 36386339 0% 0 9705073 90%
c { 11.39 3111 0 0 0  0   0   0 6656916 36386339 0% 0 9705073 90%
c i 11.65 3113 1025 0 0  0 1015  68 6656923 36386339 1% 366 9705071 90%
c - 12.17 3113 1025 0 1  0 1015  44 6289156 36386339 1% 366 9705071 90%
c } 12.17 3113 1025 1 1  0 1015  44 6289156 36386339 1% 366 9705071 90%
c [ 12.17 3113 0 1 1  0 1015  44 6289156 36386339 0% 0 9705071 90%
c B 12.57 3168 0 1 1  0 1015  44 6289156 36386339 0% 0 9705071 90%
c ] 13.15 3170 14 2 1  0 1016  45 6289156 36386339 1% 2 9705071 90%
c { 13.15 3170 1025 2 1  0 1016  45 6289156 36386339 1% 366 9705071 90%
c i 13.65 3170 1023 2 1  0 1030  47 6289163 36386337 1% 332 9705070 90%
c - 14.48 3170 963 2 2  0 2037 957 6289161 36386337 1% 35 9705070 90%
c } 14.48 3170 963 3 2  0 2037 957 6289161 36386337 1% 35 9705070 90%
c [ 14.48 3170 14 3 2  0 2037 957 6289161 36386337 1% 2 9705070 90%
c W 22.98 3235 14 3 2  0 2037 957 6289161 36295218 1% 2 9705070 90%
c i 23.15 3237 981 3 2  0 2094 996 6289166 36295218 1% 308 9705069 90%
c ] 24.21 3245 665 4 2  0 3119 1098 6289167 36295218 1% 192 9705069 90%
c { 24.21 3245 963 4 2  0 3119 1098 6289167 36295218 1% 35 9705069 90%
c i 28.62 3265 892 4 2  0 3415 1374 6289173 36295218 3% 31 9705068 90%
c - 32.69 3269 881 4 3  5 3451 1330 6289172 36295218 4% 30 9705068 90%
c i 33.74 3271 861 4 3  5 3531 1356 6289180 36295218 5% 29 9705067 90%
c
c  seconds     switched conflicts         irredundant     variables
c           MB  reductions  redundant              trail        remaining
c             level restarts         binary            glue
c
c i 34.98 3273 861 4 3  5 3532 1356 6289180 36295218 5% 29 9705066 90%
c i 38.08 3275 852 4 3  9 3572 1381 6289189 36295218 5% 30 9663135 90%
c i 38.09 3275 853 4 3 10 3574 1381 6289190 36295218 5% 30 9663134 90%
c i 48.77 3313 900 4 3 23 4102 1775 6289316 36295218 5% 26 9610392 90%
c i 50.08 3313 897 4 3 29 4123 1784 6289323 36295217 5% 27 9610313 90%
c i 50.80 3313 897 4 3 34 4131 1789 6289324 36295217 5% 27 9610309 90%
c i 53.45 3313 892 4 3 52 4160 1809 6289328 36295217 5% 27 9610303 90%
c i 57.22 3313 890 4 3 64 4183 1823 6289336 36295216 6% 28 9610245 90%
c i 57.22 3313 889 4 3 66 4186 1823 6289336 36295216 6% 28 9610244 90%
c i 62.05 3313 888 4 3 71 4197 1825 6289342 36295216 6% 28 9610243 90%
c i 83.75 3319 862 4 3 105 4313 1871 6289409 36295216 6% 28 9606895 89%
c i 87.58 3323 815 4 3 112 4733 1892 6289418 36295216 5% 28 9606894 89%
c i 88.49 3323 815 4 3 113 4752 1908 6289420 36295216 5% 28 9606892 89%
c i 88.57 3323 815 4 3 114 4753 1908 6289420 36295216 5% 28 9606826 89%
c i 89.22 3323 814 4 3 116 4758 1912 6289420 36295216 5% 28 9606231 89%
c i 89.87 3323 813 4 3 117 4762 1914 6289421 36295215 5% 28 9606151 89%
c i 90.52 3323 813 4 3 118 4763 1914 6289421 36295215 5% 28 9606150 89%
c i 93.93 3323 806 4 3 120 4806 1933 6289430 36295215 6% 28 9606147 89%
c i 94.22 3325 806 4 3 120 4809 1935 6289430 36295215 6% 28 9606146 89%
c i 94.23 3325 805 4 3 120 4814 1938 6289430 36295215 6% 28 9606144 89%
c
c  seconds     switched conflicts          irredundant     variables
c           MB  reductions   redundant              trail        remaining
c             level restarts          binary            glue
c
c i 96.62 3325 802 4 3 120 4836 1958 6289431 36295215 6% 27 9606143 89%
c i 97.39 3325 801 4 3 121 4849 1969 6289432 36295215 6% 28 9606142 89%
c i 108.08 3327 794 4 3 133 4949 2051 6289444 36295215 7% 28 9606141 89%
c - 118.35 3238 778 4 4 138 5186 814 7351247 33718807 9% 28 9606141 89%
c } 131.77 3238 789 5 4 138 5471 1092 7351250 33718807 11% 26 9606141 89%
c [ 131.77 3238 665 5 4 138 5471 1092 7351250 33718807 1% 192 9606141 89%
c I 131.88 3238 665 5 4 138 5471 1092 7351250 33718807 1% 192 9606141 89%
c i 132.54 3238 665 5 4 138 5472 1092 7351250 33718807 1% 190 9606140 89%
c i 147.43 3244 726 5 4 138 5788 1281 7351266 33718807 9% 82 9606139 89%
c i 148.40 3244 722 5 4 138 5795 1286 7351267 33718807 9% 81 9606135 89%
c d 153.48 3253 730 5 4 138 5827 1271 6070453 33546163 10% 76 8937271 83%
c b 155.62 3624 730 5 4 138 5827 1271 6070453 33546163 10% 76 8891569 83%
c u 161.57 3628 730 5 4 138 5827 1256 6070461 33546163 10% 76 8891569 83%
c v 167.16 3642 730 5 4 138 5827 1243 6070463 33546163 10% 76 8891569 83%
c = 196.75 3986 730 5 4 138 5827 1243 6080898 33531802 10% 76 8889459 83%
c d 198.90 3986 730 5 4 138 5827 1239 6069170 33531622 10% 76 8886409 83%
c t 201.56 3988 730 5 4 138 5827 1239 6068182 33531622 10% 76 8886397 83%
c b 202.23 3988 730 5 4 138 5827 1239 6068182 33531622 10% 76 8885850 83%
c i 205.98 3988 690 5 4 138 6042 1262 6068344 33531608 9% 66 8885833 83%
c i 235.72 3998 602 5 4 139 6725 1641 6068603 33531606 15% 40 8885832 83%
c
c  seconds      switched conflicts          irredundant      variables
c            MB  reductions   redundant               trail        remaining
c              level restarts          binary             glue
c
c i 238.67 3998 597 5 4 139 6749 1661 6068603 33531606 15% 39 8885831 83%
c i 238.67 3998 596 5 4 139 6752 1662 6068603 33531606 15% 39 8885829 83%
c i 238.76 3998 596 5 4 139 6754 1663 6068603 33531606 15% 39 8885828 83%
c i 239.42 3998 594 5 4 139 6761 1665 6068603 33531606 15% 39 8885823 83%
c i 240.05 3998 594 5 4 139 6763 1666 6068603 33531606 15% 39 8885822 83%
c i 240.67 3998 593 5 4 139 6764 1666 6068603 33531606 15% 39 8885821 83%
c i 249.32 3998 564 5 4 139 6890 1783 6068605 33531606 17% 36 8885820 83%
c i 256.58 3998 533 5 4 139 7061 1940 6068613 33531606 18% 33 8885819 83%
c - 263.57 3998 511 5 5 139 7187 1581 5954117 33531606 19% 31 8885819 83%
c i 264.76 3998 507 5 5 139 7211 1603 5954117 33531606 19% 31 8885817 83%
c i 272.50 3998 484 5 5 139 7342 1730 5954119 33531606 20% 29 8885816 83%
c i 277.15 3998 473 5 5 139 7411 1796 5954121 33531606 21% 28 8885815 83%
c i 279.14 3998 471 5 5 139 7426 1808 5954123 33531606 21% 28 8885814 83%
c i 290.44 3998 445 5 5 139 7608 1976 5954129 33531606 22% 26 8885813 83%
c ] 293.57 3998 439 6 5 139 7652 2019 5954130 33531606 22% 26 8885813 83%
c { 293.57 3998 789 6 5 139 7652 2019 5954130 33531606 11% 26 8885813 83%
c i 294.81 4000 789 6 5 139 7680 2041 5954132 33531605 11% 26 8885812 83%
c i 306.23 4004 725 6 5 140 9159 2863 5954284 33531605 21% 22 8885763 83%
c i 306.58 4004 727 6 5 140 9165 2866 5954285 33531605 21% 22 8885758 83%
c i 306.85 4004 729 6 5 140 9173 2866 5954288 33531603 21% 22 8885756 83%
c
c  seconds      switched conflicts          irredundant      variables
c            MB  reductions   redundant               trail        remaining
c              level restarts          binary             glue
c
c i 306.86 4004 729 6 5 140 9177 2866 5954291 33531603 21% 22 8885755 83%
c i 308.07 4015 729 6 5 140 9178 2866 5954291 33531603 21% 22 6051758 56%
c - 316.15 3686 712 6 6 140 9424 1957 6265306 19754447 21% 22 5907375 55%
c i 318.74 2341 709 6 6 143 9459 1987 6265308 19754447 21% 22 5907374 55%
c i 318.89 2341 709 6 6 144 9464 1991 6265308 19754447 21% 22 5907373 55%
c i 325.64 2356 674 6 6 158 9991 2359 6265340 19754447 21% 21 5907364 55%
c i 325.64 2356 674 6 6 158 9992 2359 6265340 19754447 21% 21 5907363 55%
c i 325.68 2356 675 6 6 158 9994 2359 6265341 19754447 21% 21 5907362 55%
c i 325.68 2356 675 6 6 158 9995 2359 6265341 19754447 21% 21 5907361 55%
c i 325.71 2358 677 6 6 158 9999 2359 6265343 19754447 21% 21 5907360 55%
c i 325.75 2358 678 6 6 158 10004 2359 6265347 19754447 21% 21 5907359 55%
c i 325.80 2358 678 6 6 158 10011 2362 6265350 19754447 21% 21 5907358 55%
c i 334.34 2382 634 6 6 168 10708 2707 6265455 19754447 20% 20 5907357 55%
c i 334.36 2382 634 6 6 169 10710 2707 6265456 19754447 20% 20 5907356 55%
c i 334.37 2382 634 6 6 170 10711 2707 6265456 19754447 20% 20 5907355 55%
c i 334.38 2382 634 6 6 170 10712 2707 6265456 19754447 20% 20 5907354 55%
c i 334.39 2382 634 6 6 171 10715 2707 6265458 19754447 20% 20 5907353 55%
c i 334.44 2384 636 6 6 171 10721 2708 6265461 19754447 20% 20 5907352 55%
c i 334.45 2384 636 6 6 171 10723 2708 6265462 19754447 20% 20 5907351 55%
c d 349.38 2402 601 6 6 171 11601 3071 5472779 19429445 21% 19 5429724 51%
c
c  seconds      switched  conflicts          irredundant      variables
c            MB  reductions    redundant               trail        remaining
c              level restarts           binary             glue
c
c b 350.77 2428 601 6 6 171 11601 3071 5472779 19429445 21% 19 5335838 50%
c u 355.21 2434 601 6 6 171 11601 2851 5472893 19429445 21% 19 5332370 50%
c v 359.66 2434 601 6 6 171 11601 2755 5472914 19429445 21% 19 5332370 50%
c w 371.71 2532 601 6 6 171 11601 2805 6686889 16847445 21% 19 5332370 50%
c = 380.35 2519 601 6 6 171 11601 2805 6688293 16847445 21% 19 5331668 50%
c d 381.93 2528 601 6 6 171 11601 2792 5419097 16846322 21% 19 4698193 44%
c t 383.48 2548 601 6 6 171 11601 2792 5419004 16846322 21% 19 4697484 44%
c b 384.02 2548 601 6 6 171 11601 2792 5419004 16846322 21% 19 4679165 44%
c i 384.02 2548 601 6 6 171 11601 2792 5419004 16846322 21% 19 4679165 44%
c i 384.02 2548 601 6 6 171 11602 2792 5419004 16846322 21% 19 4679164 44%
c i 384.02 2550 602 6 6 171 11603 2792 5419004 16846322 21% 19 4679162 44%
c i 384.04 2550 602 6 6 171 11604 2792 5419004 16846322 21% 19 4679161 44%
c i 384.10 2550 603 6 6 171 11608 2792 5419005 16846322 21% 19 4679159 44%
c i 384.11 2550 603 6 6 171 11610 2792 5419006 16846321 21% 19 4679156 44%
c i 384.11 2550 604 6 6 171 11614 2793 5419006 16846321 21% 19 4679155 44%
c } 386.59 2552 602 7 6 171 11722 2827 5419027 16846321 20% 19 4679155 44%
c [ 386.59 2552 439 7 6 171 11722 2827 5419027 16846321 22% 26 4679155 44%
c B 386.62 2552 439 7 6 171 11722 2827 5419027 16846321 22% 26 4679155 44%
c - 393.54 2473 419 7 7 171 11877 2173 5264026 16627228 22% 24 4679155 44%
c i 395.82 2473 406 7 7 171 11983 2265 5264035 16627228 21% 24 4678872 44%
c
c  seconds      switched  conflicts          irredundant      variables
c            MB  reductions    redundant               trail        remaining
c              level restarts           binary             glue
c
c - 427.13 2493 382 7 8 172 14523 2128 5260220 16627226 19% 19 4678872 44%
c i 434.71 2495 374 7 8 173 15847 2562 5260370 16627224 18% 17 4678871 44%
c ] 437.72 2495 366 8 8 173 16191 2854 5260393 16627224 17% 19 4678871 44%
c { 437.72 2495 602 8 8 173 16191 2854 5260393 16627224 20% 19 4678871 44%
c i 438.30 2499 602 8 8 173 16193 2855 5260393 16627224 20% 19 4678870 44%
c i 438.36 2501 602 8 8 173 16194 2855 5260393 16627224 20% 19 4678869 44%
c i 438.53 2501 603 8 8 173 16196 2856 5260393 16627224 20% 19 4678868 44%
c i 438.55 2501 603 8 8 173 16197 2856 5260393 16627224 20% 19 4678867 44%
c i 439.13 2503 603 8 8 173 16233 2888 5260394 16627224 20% 19 4678866 44%
c - 447.39 2507 581 8 9 177 17351 2760 5260355 16627224 20% 17 4678866 44%
c i 459.65 2511 552 8 9 178 19422 3409 5260661 16627224 18% 16 4678863 44%
c i 459.65 2511 552 8 9 178 19423 3409 5260661 16627224 18% 16 4678862 44%
c i 459.65 2511 552 8 9 178 19424 3409 5260661 16627224 18% 16 4678861 44%
c i 459.65 2511 552 8 9 178 19425 3409 5260661 16627224 18% 16 4678860 44%
c i 459.65 2511 552 8 9 178 19426 3409 5260661 16627224 18% 16 4678859 44%
c i 459.65 2511 552 8 9 178 19427 3409 5260661 16627224 18% 16 4678858 44%
c i 459.65 2511 552 8 9 178 19428 3409 5260661 16627224 18% 16 4678857 44%
c i 459.65 2511 552 8 9 178 19429 3409 5260661 16627224 18% 16 4678856 44%
c i 459.65 2511 552 8 9 178 19430 3409 5260661 16627224 18% 16 4678855 44%
c i 459.65 2511 552 8 9 178 19431 3409 5260661 16627224 18% 16 4678854 44%
c
c  seconds      switched  conflicts          irredundant      variables
c            MB  reductions    redundant               trail        remaining
c              level restarts           binary             glue
c
c i 459.65 2511 552 8 9 178 19432 3409 5260661 16627224 18% 16 4678853 44%
c i 459.65 2511 552 8 9 178 19433 3409 5260661 16627224 18% 16 4678852 44%
c i 459.65 2511 552 8 9 178 19434 3409 5260661 16627224 18% 16 4678851 44%
c i 459.65 2511 552 8 9 178 19435 3409 5260661 16627224 18% 16 4678850 44%
c i 459.65 2511 552 8 9 178 19436 3409 5260661 16627224 18% 16 4678849 44%
c i 459.65 2511 552 8 9 178 19437 3409 5260661 16627224 18% 16 4678848 44%
c i 459.65 2511 552 8 9 178 19438 3409 5260661 16627224 18% 16 4678847 44%
c i 459.65 2511 552 8 9 178 19439 3409 5260661 16627224 18% 16 4678846 44%
c i 459.65 2511 552 8 9 178 19440 3409 5260661 16627224 18% 16 4678845 44%
c i 459.65 2511 552 8 9 178 19441 3409 5260661 16627224 18% 16 4678844 44%
c i 459.65 2511 552 8 9 178 19442 3409 5260661 16627224 18% 16 4678843 44%
c i 459.65 2511 552 8 9 178 19443 3409 5260661 16627224 18% 16 4678842 44%
c i 459.65 2511 552 8 9 178 19444 3409 5260661 16627224 18% 16 4678841 44%
c i 459.65 2511 552 8 9 178 19445 3409 5260661 16627224 18% 16 4678840 44%
c i 459.65 2511 552 8 9 178 19446 3409 5260661 16627224 18% 16 4678839 44%
c i 459.65 2511 552 8 9 178 19447 3409 5260661 16627224 18% 16 4678838 44%
c i 461.13 2511 546 8 9 178 19585 3537 5260665 16627224 18% 16 4678837 44%
c - 473.48 2511 515 8 10 178 20352 3624 5260648 16627222 17% 15 4678837 44%
c i 490.16 2511 479 8 10 178 21304 4532 5260677 16627216 16% 14 4676785 44%
c i 490.47 2511 481 8 10 178 21321 4539 5260684 16627216 16% 14 4676784 44%
c
c  seconds      switched   conflicts          irredundant      variables
c            MB   reductions    redundant               trail        remaining
c              level  restarts           binary             glue
c
c i 490.57 2511 481 8 10 178 21326 4542 5260685 16627216 16% 14 4676759 44%
c i 492.95 2513 479 8 10 178 21429 4622 5260696 16627216 16% 14 4676758 44%
c i 493.70 2513 477 8 10 178 21462 4637 5260701 16627216 16% 14 4675067 44%
c i 493.71 2513 477 8 10 178 21467 4637 5260705 16627216 16% 14 4672773 44%
c i 493.87 2513 477 8 10 178 21469 4637 5260706 16627216 16% 14 4519055 42%
c } 494.04 2514 477 8 10 178 21471 4637 5260706 16627216 16% 14 4322441 40%
c 0 494.04 2514 477 8 10 178 21471 4637 5260706 16627216 16% 14 4322441 40%
c
c ---- [ result ] ------------------------------------------------------------
c
s UNSATISFIABLE
c
c ---- [ profiling ] ---------------------------------------------------------
c
c         390.52   79.05 %  search
c         222.64   45.06 %  focused
c         167.89   33.98 %  stable
c          92.12   18.65 %  simplify
c          87.96   17.80 %  probe
c          51.92   10.51 %  vivify
c          18.79    3.80 %  sweep
c          15.95    3.23 %  reduce
c          11.84    2.40 %  substitute
c          11.39    2.31 %  parse
c           4.30    0.87 %  warmup
c           4.16    0.84 %  walking
c           2.79    0.56 %  backbone
c           2.63    0.53 %  transitive
c =============================================
c         494.04  100.00 %  total
c
c ---- [ statistics ] --------------------------------------------------------
c
c chronological:                         5382               25 %  conflicts
c conflicts:                            21471               43.46 per second
c decisions:                           420493               19.58 per conflict
c jumped_reasons:                    82357265                4 %  propagations
c propagations:                    1905429578          3856822    per second
c queue_decisions:                     219795               52 %  decision
c random_decisions:                     57759               14 %  decision
c random_sequences:                        12             1789    interval
c reductions:                              10             2147    interval
c rephased:                                 4             5368    interval
c restarts:                               178              120.62 interval
c score_decisions:                     142939               34 %  decision
c substituted:                        1785141               17 %  variables
c switched:                                 8             2684    interval
c vivified:                               485                6 %  checks
c vivify_checks:                         8595             4298    per vivify
c vivify_units:                             3                0 %  variables
c walk_improved:                            1              100 %  walks
c walks:                                    1            21471    interval
c
c ---- [ resources ] ---------------------------------------------------------
c
c maximum-resident-set-size:       4429672448 bytes       4224 MB
c process-time:                         8m 14s             494.04 seconds
c
c ---- [ shutting down ] -----------------------------------------------------
c
c exit 20
